# Solution for model OBJROW
# Objective value = 20
C 20
x(1,2) 0
x(1,3) 3
x(1,1) 15
x(2,1) 8
x(2,2) 3
x(2,3) 12
x(3,2) 8
x(3,3) 11
x(3,1) 12
y(1,2,1) 0
y(1,2,2) 1
y(1,2,3) 1
y(1,3,1) 0
y(1,3,2) 1
y(1,3,3) 1
y(2,1,1) 1
y(2,1,2) 0
y(2,1,3) 0
y(2,3,1) 1
y(2,3,2) 1
y(2,3,3) 0
y(3,1,1) 1
y(3,1,2) 0
y(3,1,3) 0
y(3,2,1) 0
y(3,2,2) 0
y(3,2,3) 1
y(1,1,1) 0
y(1,1,2) 0
y(1,1,3) 0
y(2,2,1) 0
y(2,2,2) 0
y(2,2,3) 0
y(3,3,1) 0
y(3,3,2) 0
y(3,3,3) 0
